1298816
58, 104, 54, 100, 53, 17, 80, 48, 21, 13, 93, 96, 62, 73, 50, 76, 18, 42, 60, 106, 33, 78, 108, 55, 40, 68, 28, 8, 36, 12, 65, 7, 88, 19, 87, 105, 99, 47, 71, 97, 89, 91, 11, 49, 39, 14, 70, 69, 31, 86, 27, 57, 75, 72, 38, 26, 41, 37, 9, 77, 66, 10, 109, 24, 90, 1, 35, 98, 101, 5, 82, 45, 34, 52, 29, 94, 46, 59, 84, 51, 2, 81, 16, 107, 25, 83, 3, 20, 63, 44, 43, 85, 61, 32, 95, 6, 30, 103, 92, 56, 74, 4, 67, 79, 23, 15, 64, 22, 102
